unsat
(:eliminated-applications 1
 :max-memory              17.95
 :memory                  17.95
 :nlsat-conflicts         1
 :nlsat-propagations      2
 :nlsat-stages            1
 :num-allocs              18288
 :rlimit-count            596
 :time                    0.00
 :total-time              0.01)
